p edge 50 136
e 0 15
e 0 20
e 0 29
e 0 38
e 0 40
e 1 6
e 1 14
e 1 17
e 1 22
e 1 34
e 1 47
e 2 11
e 2 23
e 2 30
e 2 34
e 2 35
e 2 38
e 2 39
e 2 47
e 3 9
e 3 29
e 3 39
e 4 12
e 4 20
e 4 23
e 4 33
e 5 6
e 5 9
e 5 11
e 5 25
e 5 31
e 5 49
e 6 23
e 6 28
e 6 30
e 6 40
e 6 44
e 6 45
e 7 10
e 7 12
e 7 17
e 7 33
e 7 38
e 7 48
e 8 9
e 8 38
e 8 40
e 9 10
e 9 20
e 9 23
e 10 48
e 11 22
e 11 40
e 11 44
e 11 45
e 11 46
e 11 49
e 12 15
e 12 22
e 12 26
e 12 48
e 13 14
e 13 15
e 13 21
e 13 22
e 13 33
e 13 42
e 13 48
e 14 24
e 14 29
e 14 32
e 15 23
e 15 24
e 15 27
e 15 29
e 15 30
e 15 46
e 15 48
e 16 21
e 16 37
e 17 18
e 17 36
e 18 38
e 18 49
e 19 23
e 19 24
e 19 25
e 19 37
e 19 40
e 19 49
e 20 24
e 20 38
e 20 42
e 20 45
e 21 23
e 21 27
e 21 34
e 21 40
e 21 47
e 21 49
e 23 26
e 23 34
e 23 35
e 24 42
e 24 44
e 24 46
e 25 49
e 26 34
e 26 44
e 26 49
e 27 36
e 27 46
e 28 37
e 28 39
e 28 41
e 29 35
e 29 43
e 30 38
e 30 40
e 30 47
e 31 39
e 32 49
e 33 34
e 33 39
e 33 46
e 35 36
e 37 44
e 38 47
e 39 41
e 40 41
e 40 43
e 40 44
e 41 42
e 43 46
e 43 48
e 48 49
